proyfinal/src/viki/013/andrea/andrea-localstore/experimentInOfficeAgust.take6/worker_8/00688f10-615e-4d8a-8f20-dec82331e351.als.cnf.out
Reading from standard input... Use '--help' for help.
============================[ Problem Statistics ]=============================
|                                                                             |
|  Number of variables:         87638                                         |
|  Number of clauses:          161767                                         |
|  Parse time:                   0.03 s                                       |
|                                                                             |
============================[ Search Statistics ]==============================
| Conflicts |          ORIGINAL         |          LEARNT          | Progress |
|           |    Vars  Clauses Literals |    Limit  Clauses Lit/Cl |          |
===============================================================================
|       100 |   63883   110616   276230 |    40559      100     21 | 27.106 % |
|       250 |   63883   110616   276230 |    44615      250     27 | 27.106 % |
|       475 |   63883   110616   276230 |    49076      475     45 | 27.106 % |
|       812 |   63882   110572   276140 |    53984      811     52 | 27.107 % |
|      1318 |   63882   110572   276140 |    59382     1317     49 | 27.107 % |
|      2077 |   63882   110572   276140 |    65320     2076     56 | 27.107 % |
|      3216 |   63882   110572   276140 |    71853     3215     56 | 27.107 % |
|      4924 |   63882   110572   276140 |    79038     4923     70 | 27.107 % |
|      7486 |   63822   110328   275496 |    86942     7216     69 | 27.176 % |
|     11330 |   63799   110197   275211 |    95636    10703     74 | 27.202 % |
|     17096 |   63676   109660   273980 |   105200    14942     73 | 27.342 % |
===============================================================================
restarts              : 63
conflicts             : 17374          (7285 /sec)
decisions             : 53674          (0.00 % random) (22505 /sec)
propagations          : 22661144       (9501524 /sec)
conflict literals     : 1298666        (54.13 % deleted)
Memory used           : 29.89 MB
CPU time              : 2.385 s

INDETERMINATE
